Problem:    model
Rows:       4
Columns:    4 (4 integer, 0 binary)
Non-zeros:  16
Status:     INTEGER OPTIMAL
Objective:  TotalCost = 375000 (MINimum)

   No.   Row name        Activity     Lower bound   Upper bound
------ ------------    ------------- ------------- -------------
     1 TotalCost              375000                             
     2 Media                   96570         50000               
     3 Digital                 75000         75000               
     4 Transport               60060         60000               

   No. Column name       Activity     Lower bound   Upper bound
------ ------------    ------------- ------------- -------------
     1 x[P1]        *           1029             0               
     2 x[P2]        *              0             0               
     3 x[P3]        *            564             0               
     4 x[P4]        *              0             0               

Integer feasibility conditions:

KKT.PE: max.abs.err = 0.00e+00 on row 0
        max.rel.err = 0.00e+00 on row 0
        High quality

KKT.PB: max.abs.err = 0.00e+00 on row 0
        max.rel.err = 0.00e+00 on row 0
        High quality

End of output
